c description: Random 3-CNF over 11 variables and 22 clauses
p cnf 11 22
-4 6 9 0
-5 -6 -11 0
-1 -2 -8 0
-2 8 -10 0
-1 7 8 0
-4 -9 11 0
2 -6 7 0
2 4 -8 0
2 7 -8 0
-5 -9 -11 0
-5 -7 -11 0
-1 -2 7 0
1 3 5 0
-5 9 11 0
2 -5 10 0
4 8 9 0
-3 -4 11 0
-3 -7 10 0
4 -5 -9 0
-1 -3 -5 0
-4 -6 -9 0
2 -3 5 0